nK = 1206;
nT = 6;
nI = 14;
L = 29;
TT = 262;
np = 1;
nc = 3;
b = [44, 21, 64, 54, 25, 27, 32, 23, 46, 49, 53, 48, 70, 41];
d = [100, 138, 149, 97, 63, 44, 65, 39, 113, 105, 81, 147, 108, 150];
m = [1.9, 2.1, 2, 2.1, 1.4, 1.4, 1.1, 1.6, 1.9, 1.5, 2.2, 2.4, 1.8, 2.1];
pt = [0.23, 0.32, 0.21, 0.31, 0.25, 0.33];
st = [12.19, 17.92, 8.82, 17.98, 11.25, 13.53];
arc = {<1, 0, 1, 1, 0, 0, 0, [1, 1, 1, 1, 1, 1]>, <2, 1, 2, 1, 0, 0, 0, [1, 1, 1, 1, 1, 1]>, <3, 2, 3, 1, 0, 0, 0, [1, 1, 1, 1, 1, 1]>, <4, 3, 4, 1, 0, 0, 0, [1, 1, 1, 1, 1, 1]>, <5, 4, 5, 1, 0, 0, 0, [1, 1, 1, 1, 1, 1]>, <6, 5, 6, 1, 0, 0, 0, [1, 1, 1, 1, 1, 1]>, <7, 6, 7, 1, 0, 0, 0, [1, 1, 1, 1, 1, 1]>, <8, 7, 8, 1, 0, 0, 0, [1, 1, 1, 1, 1, 1]>, <9, 8, 9, 1, 0, 0, 0, [1, 1, 1, 1, 1, 1]>, <10, 9, 10, 1, 0, 0, 0, [1, 1, 1, 1, 1, 1]>, <11, 10, 11, 1, 0, 0, 0, [1, 1, 1, 1, 1, 1]>, <12, 11, 12, 1, 0, 0, 0, [1, 1, 1, 1, 1, 1]>, <13, 12, 13, 1, 0, 0, 0, [1, 1, 1, 1, 1, 1]>, <14, 13, 14, 1, 0, 0, 0, [1, 1, 1, 1, 1, 1]>, <15, 14, 15, 1, 0, 0, 0, [1, 1, 1, 1, 1, 1]>, <16, 15, 16, 1, 0, 0, 0, [1, 1, 1, 1, 1, 1]>, <17, 16, 17, 1, 0, 0, 0, [1, 1, 1, 1, 1, 1]>, <18, 17, 18, 1, 0, 0, 0, [1, 1, 1, 1, 1, 1]>, <19, 18, 19, 1, 0, 0, 0, [1, 1, 1, 1, 1, 1]>, <20, 19, 20, 1, 0, 0, 0, [1, 1, 1, 1, 1, 1]>, <21, 20, 21, 1, 0, 0, 0, [1, 1, 1, 1, 1, 1]>, <22, 21, 22, 1, 0, 0, 0, [1, 1, 1, 1, 1, 1]>, <23, 22, 23, 1, 0, 0, 0, [1, 1, 1, 1, 1, 1]>, <24, 23, 24, 1, 0, 0, 0, [1, 1, 1, 1, 1, 1]>, <25, 24, 25, 1, 0, 0, 0, [1, 1, 1, 1, 1, 1]>, <26, 25, 26, 1, 0, 0, 0, [1, 1, 1, 1, 1, 1]>, <27, 26, 27, 1, 0, 0, 0, [1, 1, 1, 1, 1, 1]>, <28, 27, 28, 1, 0, 0, 0, [1, 1, 1, 1, 1, 1]>, <29, 28, 29, 1, 0, 0, 0, [1, 1, 1, 1, 1, 1]>, <30, 1, 12, 11, 1, 0, 0, [1, 1, 1, 0, 0, 1]>, <31, 2, 13, 11, 1, 0, 0, [1, 1, 1, 0, 0, 1]>, <32, 3, 14, 11, 1, 0, 0, [1, 1, 1, 0, 0, 1]>, <33, 4, 15, 11, 1, 0, 0, [1, 1, 1, 0, 0, 1]>, <34, 5, 16, 11, 1, 0, 0, [1, 1, 1, 0, 0, 1]>, <35, 9, 20, 11, 1, 0, 0, [1, 1, 1, 0, 0, 1]>, <36, 10, 21, 11, 1, 0, 0, [1, 1, 1, 0, 0, 1]>, <37, 11, 22, 11, 1, 0, 0, [1, 1, 1, 0, 0, 1]>, <38, 12, 23, 11, 1, 0, 0, [1, 1, 1, 0, 0, 1]>, <39, 13, 24, 11, 1, 0, 0, [1, 1, 1, 0, 0, 1]>, <40, 14, 25, 11, 1, 0, 0, [1, 1, 1, 0, 0, 1]>, <41, 15, 26, 11, 1, 0, 0, [1, 1, 1, 0, 0, 1]>, <42, 16, 27, 11, 1, 0, 0, [1, 1, 1, 0, 0, 1]>, <43, 17, 28, 11, 1, 0, 0, [1, 1, 1, 0, 0, 1]>, <44, 18, 29, 11, 1, 0, 0, [1, 1, 1, 0, 0, 1]>, <45, 1, 12, 11, 2, 0, 0, [0, 0, 1, 1, 1, 1]>, <46, 2, 13, 11, 2, 0, 0, [0, 0, 1, 1, 1, 1]>, <47, 3, 14, 11, 2, 0, 0, [0, 0, 1, 1, 1, 1]>, <48, 4, 15, 11, 2, 0, 0, [0, 0, 1, 1, 1, 1]>, <49, 5, 16, 11, 2, 0, 0, [0, 0, 1, 1, 1, 1]>, <50, 9, 20, 11, 2, 0, 0, [0, 0, 1, 1, 1, 1]>, <51, 10, 21, 11, 2, 0, 0, [0, 0, 1, 1, 1, 1]>, <52, 11, 22, 11, 2, 0, 0, [0, 0, 1, 1, 1, 1]>, <53, 12, 23, 11, 2, 0, 0, [0, 0, 1, 1, 1, 1]>, <54, 13, 24, 11, 2, 0, 0, [0, 0, 1, 1, 1, 1]>, <55, 14, 25, 11, 2, 0, 0, [0, 0, 1, 1, 1, 1]>, <56, 15, 26, 11, 2, 0, 0, [0, 0, 1, 1, 1, 1]>, <57, 16, 27, 11, 2, 0, 0, [0, 0, 1, 1, 1, 1]>, <58, 17, 28, 11, 2, 0, 0, [0, 0, 1, 1, 1, 1]>, <59, 18, 29, 11, 2, 0, 0, [0, 0, 1, 1, 1, 1]>, <60, 1, 12, 11, 3, 1, 0, [1, 0, 0, 1, 1, 1]>, <61, 2, 13, 11, 3, 1, 0, [1, 0, 0, 1, 1, 1]>, <62, 3, 14, 11, 3, 1, 0, [1, 0, 0, 1, 1, 1]>, <63, 4, 15, 11, 3, 1, 0, [1, 0, 0, 1, 1, 1]>, <64, 5, 16, 11, 3, 1, 0, [1, 0, 0, 1, 1, 1]>, <65, 9, 20, 11, 3, 1, 0, [1, 0, 0, 1, 1, 1]>, <66, 10, 21, 11, 3, 1, 0, [1, 0, 0, 1, 1, 1]>, <67, 11, 22, 11, 3, 1, 0, [1, 0, 0, 1, 1, 1]>, <68, 12, 23, 11, 3, 1, 0, [1, 0, 0, 1, 1, 1]>, <69, 13, 24, 11, 3, 1, 0, [1, 0, 0, 1, 1, 1]>, <70, 14, 25, 11, 3, 1, 0, [1, 0, 0, 1, 1, 1]>, <71, 15, 26, 11, 3, 1, 0, [1, 0, 0, 1, 1, 1]>, <72, 16, 27, 11, 3, 1, 0, [1, 0, 0, 1, 1, 1]>, <73, 17, 28, 11, 3, 1, 0, [1, 0, 0, 1, 1, 1]>, <74, 18, 29, 11, 3, 1, 0, [1, 0, 0, 1, 1, 1]>, <75, 0, 14, 14, 4, 0, 0, [1, 1, 1, 1, 0, 0]>, <76, 1, 15, 14, 4, 0, 0, [1, 1, 1, 1, 0, 0]>, <77, 2, 16, 14, 4, 0, 0, [1, 1, 1, 1, 0, 0]>, <78, 3, 17, 14, 4, 0, 0, [1, 1, 1, 1, 0, 0]>, <79, 4, 18, 14, 4, 0, 0, [1, 1, 1, 1, 0, 0]>, <80, 5, 19, 14, 4, 0, 0, [1, 1, 1, 1, 0, 0]>, <81, 6, 20, 14, 4, 0, 0, [1, 1, 1, 1, 0, 0]>, <82, 7, 21, 14, 4, 0, 0, [1, 1, 1, 1, 0, 0]>, <83, 8, 22, 14, 4, 0, 0, [1, 1, 1, 1, 0, 0]>, <84, 9, 23, 14, 4, 0, 0, [1, 1, 1, 1, 0, 0]>, <85, 10, 24, 14, 4, 0, 0, [1, 1, 1, 1, 0, 0]>, <86, 11, 25, 14, 4, 0, 0, [1, 1, 1, 1, 0, 0]>, <87, 12, 26, 14, 4, 0, 0, [1, 1, 1, 1, 0, 0]>, <88, 13, 27, 14, 4, 0, 0, [1, 1, 1, 1, 0, 0]>, <89, 14, 28, 14, 4, 0, 0, [1, 1, 1, 1, 0, 0]>, <90, 15, 29, 14, 4, 0, 0, [1, 1, 1, 1, 0, 0]>, <91, 2, 12, 10, 5, 0, 0, [1, 1, 1, 0, 0, 1]>, <92, 3, 13, 10, 5, 0, 0, [1, 1, 1, 0, 0, 1]>, <93, 4, 14, 10, 5, 0, 0, [1, 1, 1, 0, 0, 1]>, <94, 5, 15, 10, 5, 0, 0, [1, 1, 1, 0, 0, 1]>, <95, 10, 20, 10, 5, 0, 0, [1, 1, 1, 0, 0, 1]>, <96, 11, 21, 10, 5, 0, 0, [1, 1, 1, 0, 0, 1]>, <97, 12, 22, 10, 5, 0, 0, [1, 1, 1, 0, 0, 1]>, <98, 14, 24, 10, 5, 0, 0, [1, 1, 1, 0, 0, 1]>, <99, 15, 25, 10, 5, 0, 0, [1, 1, 1, 0, 0, 1]>, <100, 16, 26, 10, 5, 0, 0, [1, 1, 1, 0, 0, 1]>, <101, 17, 27, 10, 5, 0, 0, [1, 1, 1, 0, 0, 1]>, <102, 18, 28, 10, 5, 0, 0, [1, 1, 1, 0, 0, 1]>, <103, 19, 29, 10, 5, 0, 0, [1, 1, 1, 0, 0, 1]>, <104, 0, 13, 13, 6, 0, 0, [0, 0, 1, 1, 1, 1]>, <105, 1, 14, 13, 6, 0, 0, [0, 0, 1, 1, 1, 1]>, <106, 2, 15, 13, 6, 0, 0, [0, 0, 1, 1, 1, 1]>, <107, 3, 16, 13, 6, 0, 0, [0, 0, 1, 1, 1, 1]>, <108, 4, 17, 13, 6, 0, 0, [0, 0, 1, 1, 1, 1]>, <109, 5, 18, 13, 6, 0, 0, [0, 0, 1, 1, 1, 1]>, <110, 7, 20, 13, 6, 0, 0, [0, 0, 1, 1, 1, 1]>, <111, 8, 21, 13, 6, 0, 0, [0, 0, 1, 1, 1, 1]>, <112, 9, 22, 13, 6, 0, 0, [0, 0, 1, 1, 1, 1]>, <113, 10, 23, 13, 6, 0, 0, [0, 0, 1, 1, 1, 1]>, <114, 11, 24, 13, 6, 0, 0, [0, 0, 1, 1, 1, 1]>, <115, 12, 25, 13, 6, 0, 0, [0, 0, 1, 1, 1, 1]>, <116, 13, 26, 13, 6, 0, 0, [0, 0, 1, 1, 1, 1]>, <117, 14, 27, 13, 6, 0, 0, [0, 0, 1, 1, 1, 1]>, <118, 15, 28, 13, 6, 0, 0, [0, 0, 1, 1, 1, 1]>, <119, 16, 29, 13, 6, 0, 0, [0, 0, 1, 1, 1, 1]>, <120, 0, 14, 14, 7, 0, 1, [1, 1, 0, 0, 1, 1]>, <121, 1, 15, 14, 7, 0, 1, [1, 1, 0, 0, 1, 1]>, <122, 2, 16, 14, 7, 0, 1, [1, 1, 0, 0, 1, 1]>, <123, 3, 17, 14, 7, 0, 1, [1, 1, 0, 0, 1, 1]>, <124, 4, 18, 14, 7, 0, 1, [1, 1, 0, 0, 1, 1]>, <125, 5, 19, 14, 7, 0, 1, [1, 1, 0, 0, 1, 1]>, <126, 6, 20, 14, 7, 0, 1, [1, 1, 0, 0, 1, 1]>, <127, 7, 21, 14, 7, 0, 1, [1, 1, 0, 0, 1, 1]>, <128, 8, 22, 14, 7, 0, 1, [1, 1, 0, 0, 1, 1]>, <129, 9, 23, 14, 7, 0, 1, [1, 1, 0, 0, 1, 1]>, <130, 10, 24, 14, 7, 0, 1, [1, 1, 0, 0, 1, 1]>, <131, 11, 25, 14, 7, 0, 1, [1, 1, 0, 0, 1, 1]>, <132, 12, 26, 14, 7, 0, 1, [1, 1, 0, 0, 1, 1]>, <133, 13, 27, 14, 7, 0, 1, [1, 1, 0, 0, 1, 1]>, <134, 14, 28, 14, 7, 0, 1, [1, 1, 0, 0, 1, 1]>, <135, 15, 29, 14, 7, 0, 1, [1, 1, 0, 0, 1, 1]>, <136, 0, 14, 14, 8, 0, 0, [1, 1, 1, 1, 0, 0]>, <137, 1, 15, 14, 8, 0, 0, [1, 1, 1, 1, 0, 0]>, <138, 2, 16, 14, 8, 0, 0, [1, 1, 1, 1, 0, 0]>, <139, 3, 17, 14, 8, 0, 0, [1, 1, 1, 1, 0, 0]>, <140, 4, 18, 14, 8, 0, 0, [1, 1, 1, 1, 0, 0]>, <141, 5, 19, 14, 8, 0, 0, [1, 1, 1, 1, 0, 0]>, <142, 6, 20, 14, 8, 0, 0, [1, 1, 1, 1, 0, 0]>, <143, 7, 21, 14, 8, 0, 0, [1, 1, 1, 1, 0, 0]>, <144, 8, 22, 14, 8, 0, 0, [1, 1, 1, 1, 0, 0]>, <145, 9, 23, 14, 8, 0, 0, [1, 1, 1, 1, 0, 0]>, <146, 10, 24, 14, 8, 0, 0, [1, 1, 1, 1, 0, 0]>, <147, 11, 25, 14, 8, 0, 0, [1, 1, 1, 1, 0, 0]>, <148, 12, 26, 14, 8, 0, 0, [1, 1, 1, 1, 0, 0]>, <149, 13, 27, 14, 8, 0, 0, [1, 1, 1, 1, 0, 0]>, <150, 14, 28, 14, 8, 0, 0, [1, 1, 1, 1, 0, 0]>, <151, 15, 29, 14, 8, 0, 0, [1, 1, 1, 1, 0, 0]>, <152, 0, 12, 12, 9, 0, 1, [1, 1, 0, 0, 1, 1]>, <153, 1, 13, 12, 9, 0, 1, [1, 1, 0, 0, 1, 1]>, <154, 2, 14, 12, 9, 0, 1, [1, 1, 0, 0, 1, 1]>, <155, 3, 15, 12, 9, 0, 1, [1, 1, 0, 0, 1, 1]>, <156, 4, 16, 12, 9, 0, 1, [1, 1, 0, 0, 1, 1]>, <157, 5, 17, 12, 9, 0, 1, [1, 1, 0, 0, 1, 1]>, <158, 8, 20, 12, 9, 0, 1, [1, 1, 0, 0, 1, 1]>, <159, 9, 21, 12, 9, 0, 1, [1, 1, 0, 0, 1, 1]>, <160, 10, 22, 12, 9, 0, 1, [1, 1, 0, 0, 1, 1]>, <161, 11, 23, 12, 9, 0, 1, [1, 1, 0, 0, 1, 1]>, <162, 12, 24, 12, 9, 0, 1, [1, 1, 0, 0, 1, 1]>, <163, 13, 25, 12, 9, 0, 1, [1, 1, 0, 0, 1, 1]>, <164, 14, 26, 12, 9, 0, 1, [1, 1, 0, 0, 1, 1]>, <165, 15, 27, 12, 9, 0, 1, [1, 1, 0, 0, 1, 1]>, <166, 16, 28, 12, 9, 0, 1, [1, 1, 0, 0, 1, 1]>, <167, 17, 29, 12, 9, 0, 1, [1, 1, 0, 0, 1, 1]>, <168, 0, 14, 14, 10, 0, 0, [1, 1, 1, 1, 0, 0]>, <169, 1, 15, 14, 10, 0, 0, [1, 1, 1, 1, 0, 0]>, <170, 2, 16, 14, 10, 0, 0, [1, 1, 1, 1, 0, 0]>, <171, 3, 17, 14, 10, 0, 0, [1, 1, 1, 1, 0, 0]>, <172, 4, 18, 14, 10, 0, 0, [1, 1, 1, 1, 0, 0]>, <173, 5, 19, 14, 10, 0, 0, [1, 1, 1, 1, 0, 0]>, <174, 6, 20, 14, 10, 0, 0, [1, 1, 1, 1, 0, 0]>, <175, 7, 21, 14, 10, 0, 0, [1, 1, 1, 1, 0, 0]>, <176, 8, 22, 14, 10, 0, 0, [1, 1, 1, 1, 0, 0]>, <177, 9, 23, 14, 10, 0, 0, [1, 1, 1, 1, 0, 0]>, <178, 10, 24, 14, 10, 0, 0, [1, 1, 1, 1, 0, 0]>, <179, 11, 25, 14, 10, 0, 0, [1, 1, 1, 1, 0, 0]>, <180, 12, 26, 14, 10, 0, 0, [1, 1, 1, 1, 0, 0]>, <181, 13, 27, 14, 10, 0, 0, [1, 1, 1, 1, 0, 0]>, <182, 14, 28, 14, 10, 0, 0, [1, 1, 1, 1, 0, 0]>, <183, 15, 29, 14, 10, 0, 0, [1, 1, 1, 1, 0, 0]>, <184, 0, 15, 15, 11, 1, 0, [0, 1, 1, 1, 1, 0]>, <185, 1, 16, 15, 11, 1, 0, [0, 1, 1, 1, 1, 0]>, <186, 2, 17, 15, 11, 1, 0, [0, 1, 1, 1, 1, 0]>, <187, 3, 18, 15, 11, 1, 0, [0, 1, 1, 1, 1, 0]>, <188, 4, 19, 15, 11, 1, 0, [0, 1, 1, 1, 1, 0]>, <189, 5, 20, 15, 11, 1, 0, [0, 1, 1, 1, 1, 0]>, <190, 6, 21, 15, 11, 1, 0, [0, 1, 1, 1, 1, 0]>, <191, 7, 22, 15, 11, 1, 0, [0, 1, 1, 1, 1, 0]>, <192, 8, 23, 15, 11, 1, 0, [0, 1, 1, 1, 1, 0]>, <193, 9, 24, 15, 11, 1, 0, [0, 1, 1, 1, 1, 0]>, <194, 10, 25, 15, 11, 1, 0, [0, 1, 1, 1, 1, 0]>, <195, 11, 26, 15, 11, 1, 0, [0, 1, 1, 1, 1, 0]>, <196, 12, 27, 15, 11, 1, 0, [0, 1, 1, 1, 1, 0]>, <197, 13, 28, 15, 11, 1, 0, [0, 1, 1, 1, 1, 0]>, <198, 14, 29, 15, 11, 1, 0, [0, 1, 1, 1, 1, 0]>, <199, 0, 13, 13, 12, 0, 0, [0, 1, 1, 1, 1, 0]>, <200, 1, 14, 13, 12, 0, 0, [0, 1, 1, 1, 1, 0]>, <201, 2, 15, 13, 12, 0, 0, [0, 1, 1, 1, 1, 0]>, <202, 3, 16, 13, 12, 0, 0, [0, 1, 1, 1, 1, 0]>, <203, 4, 17, 13, 12, 0, 0, [0, 1, 1, 1, 1, 0]>, <204, 5, 18, 13, 12, 0, 0, [0, 1, 1, 1, 1, 0]>, <205, 7, 20, 13, 12, 0, 0, [0, 1, 1, 1, 1, 0]>, <206, 8, 21, 13, 12, 0, 0, [0, 1, 1, 1, 1, 0]>, <207, 9, 22, 13, 12, 0, 0, [0, 1, 1, 1, 1, 0]>, <208, 10, 23, 13, 12, 0, 0, [0, 1, 1, 1, 1, 0]>, <209, 11, 24, 13, 12, 0, 0, [0, 1, 1, 1, 1, 0]>, <210, 12, 25, 13, 12, 0, 0, [0, 1, 1, 1, 1, 0]>, <211, 13, 26, 13, 12, 0, 0, [0, 1, 1, 1, 1, 0]>, <212, 14, 27, 13, 12, 0, 0, [0, 1, 1, 1, 1, 0]>, <213, 15, 28, 13, 12, 0, 0, [0, 1, 1, 1, 1, 0]>, <214, 16, 29, 13, 12, 0, 0, [0, 1, 1, 1, 1, 0]>, <215, 1, 12, 11, 13, 0, 0, [1, 0, 0, 1, 1, 1]>, <216, 2, 13, 11, 13, 0, 0, [1, 0, 0, 1, 1, 1]>, <217, 3, 14, 11, 13, 0, 0, [1, 0, 0, 1, 1, 1]>, <218, 4, 15, 11, 13, 0, 0, [1, 0, 0, 1, 1, 1]>, <219, 5, 16, 11, 13, 0, 0, [1, 0, 0, 1, 1, 1]>, <220, 9, 20, 11, 13, 0, 0, [1, 0, 0, 1, 1, 1]>, <221, 10, 21, 11, 13, 0, 0, [1, 0, 0, 1, 1, 1]>, <222, 11, 22, 11, 13, 0, 0, [1, 0, 0, 1, 1, 1]>, <223, 12, 23, 11, 13, 0, 0, [1, 0, 0, 1, 1, 1]>, <224, 13, 24, 11, 13, 0, 0, [1, 0, 0, 1, 1, 1]>, <225, 14, 25, 11, 13, 0, 0, [1, 0, 0, 1, 1, 1]>, <226, 15, 26, 11, 13, 0, 0, [1, 0, 0, 1, 1, 1]>, <227, 16, 27, 11, 13, 0, 0, [1, 0, 0, 1, 1, 1]>, <228, 17, 28, 11, 13, 0, 0, [1, 0, 0, 1, 1, 1]>, <229, 18, 29, 11, 13, 0, 0, [1, 0, 0, 1, 1, 1]>, <230, 2, 12, 10, 14, 0, 0, [0, 1, 1, 1, 1, 0]>, <231, 3, 13, 10, 14, 0, 0, [0, 1, 1, 1, 1, 0]>, <232, 4, 14, 10, 14, 0, 0, [0, 1, 1, 1, 1, 0]>, <233, 5, 15, 10, 14, 0, 0, [0, 1, 1, 1, 1, 0]>, <234, 10, 20, 10, 14, 0, 0, [0, 1, 1, 1, 1, 0]>, <235, 11, 21, 10, 14, 0, 0, [0, 1, 1, 1, 1, 0]>, <236, 12, 22, 10, 14, 0, 0, [0, 1, 1, 1, 1, 0]>, <237, 14, 24, 10, 14, 0, 0, [0, 1, 1, 1, 1, 0]>, <238, 15, 25, 10, 14, 0, 0, [0, 1, 1, 1, 1, 0]>, <239, 16, 26, 10, 14, 0, 0, [0, 1, 1, 1, 1, 0]>, <240, 17, 27, 10, 14, 0, 0, [0, 1, 1, 1, 1, 0]>, <241, 18, 28, 10, 14, 0, 0, [0, 1, 1, 1, 1, 0]>, <242, 19, 29, 10, 14, 0, 0, [0, 1, 1, 1, 1, 0]>};
